RSW04
Position Depot: Random
Horizon for Depot: Small
Position of customers: Random
Distribution of the demand: Small
Width of time windows: Wide
Distribution of the service: Large

VEHICLE 
NUMBER 	 CAPACITY 
 5 	 	 73 
 
CUSTOMER
CUST NO. 	 XCOORD.  	 YCOORD. 	 DEMAND 	 READY TIME 	 DUE DATE 	 SERVICE TIME 
 0 	 	 450 	 	 222 	 	 0 	 	 0 	 	 1658 	 	 0 
  1 	 	 923 	 	 399 	 	 8 	 	 1169 	 	 1400 	 	 144 
  2 	 	 725 	 	 231 	 	 10 	 	 146 	 	 492 	 	 175 
  3 	 	 793 	 	 696 	 	 9 	 	 1208 	 	 1658 	 	 142 
  4 	 	 156 	 	 817 	 	 9 	 	 1183 	 	 1416 	 	 184 
  5 	 	 843 	 	 632 	 	 8 	 	 1254 	 	 1491 	 	 109 
  6 	 	 0 	 	 876 	 	 5 	 	 1245 	 	 1483 	 	 111 
  7 	 	 898 	 	 881 	 	 6 	 	 959 	 	 1287 	 	 107 
  8 	 	 213 	 	 878 	 	 8 	 	 520 	 	 862 	 	 184 
  9 	 	 924 	 	 363 	 	 6 	 	 1264 	 	 1545 	 	 152 
  10 	 	 82 	 	 362 	 	 5 	 	 650 	 	 1080 	 	 142 
  11 	 	 514 	 	 944 	 	 5 	 	 569 	 	 797 	 	 118 
  12 	 	 417 	 	 785 	 	 9 	 	 1306 	 	 1614 	 	 125 
  13 	 	 69 	 	 888 	 	 10 	 	 411 	 	 844 	 	 165 
  14 	 	 24 	 	 334 	 	 10 	 	 1308 	 	 1658 	 	 184 
  15 	 	 317 	 	 807 	 	 6 	 	 813 	 	 1039 	 	 105 
  16 	 	 295 	 	 163 	 	 5 	 	 1096 	 	 1457 	 	 103 
  17 	 	 864 	 	 151 	 	 7 	 	 143 	 	 462 	 	 132 
  18 	 	 803 	 	 669 	 	 9 	 	 785 	 	 1240 	 	 124 
  19 	 	 944 	 	 79 	 	 6 	 	 476 	 	 691 	 	 182 
  20 	 	 863 	 	 241 	 	 6 	 	 1369 	 	 1658 	 	 131 
  21 	 	 606 	 	 631 	 	 8 	 	 280 	 	 481 	 	 125 
  22 	 	 581 	 	 374 	 	 10 	 	 1160 	 	 1447 	 	 134 
  23 	 	 835 	 	 97 	 	 5 	 	 456 	 	 774 	 	 148 
  24 	 	 845 	 	 826 	 	 7 	 	 981 	 	 1250 	 	 138 
  25 	 	 142 	 	 304 	 	 9 	 	 69 	 	 422 	 	 166 
  26 	 	 102 	 	 790 	 	 6 	 	 699 	 	 1103 	 	 181 
  27 	 	 771 	 	 100 	 	 5 	 	 587 	 	 1031 	 	 182 
  28 	 	 7 	 	 897 	 	 7 	 	 1201 	 	 1641 	 	 160 
  29 	 	 377 	 	 184 	 	 6 	 	 737 	 	 1217 	 	 125 
  30 	 	 531 	 	 755 	 	 9 	 	 1156 	 	 1471 	 	 117 
  31 	 	 443 	 	 715 	 	 10 	 	 213 	 	 599 	 	 162 
  32 	 	 233 	 	 49 	 	 6 	 	 42 	 	 427 	 	 108 
  33 	 	 712 	 	 43 	 	 6 	 	 699 	 	 1068 	 	 194 
  34 	 	 416 	 	 460 	 	 8 	 	 727 	 	 1156 	 	 147 
  35 	 	 40 	 	 208 	 	 10 	 	 398 	 	 664 	 	 166 
  36 	 	 776 	 	 757 	 	 5 	 	 1246 	 	 1658 	 	 125 
  37 	 	 335 	 	 105 	 	 5 	 	 1344 	 	 1658 	 	 125 
  38 	 	 963 	 	 735 	 	 8 	 	 443 	 	 798 	 	 139 
  39 	 	 675 	 	 797 	 	 7 	 	 465 	 	 679 	 	 186 
  40 	 	 912 	 	 851 	 	 6 	 	 1050 	 	 1392 	 	 139 
  41 	 	 185 	 	 817 	 	 10 	 	 1305 	 	 1563 	 	 101 
  42 	 	 356 	 	 746 	 	 6 	 	 1169 	 	 1658 	 	 196 
  43 	 	 398 	 	 862 	 	 8 	 	 803 	 	 1060 	 	 128 
  44 	 	 613 	 	 359 	 	 5 	 	 6 	 	 329 	 	 121 
  45 	 	 202 	 	 437 	 	 6 	 	 1265 	 	 1658 	 	 151 
  46 	 	 601 	 	 360 	 	 5 	 	 -164 	 	 316 	 	 158 
  47 	 	 820 	 	 870 	 	 9 	 	 550 	 	 897 	 	 189 
  48 	 	 381 	 	 761 	 	 7 	 	 663 	 	 868 	 	 114 
  49 	 	 396 	 	 308 	 	 7 	 	 -112 	 	 349 	 	 161 
  50 	 	 283 	 	 53 	 	 8 	 	 440 	 	 859 	 	 194 
 